(declare-fun b_ack!687 () (_ BitVec 32))
(declare-fun a_ack!689 () (_ BitVec 32))
(declare-fun c_ack!688 () (_ BitVec 64))
(assert (not (bvslt b_ack!687 #x00000000)))
(assert (not (bvslt a_ack!689 b_ack!687)))
(assert (not (fp.lt ((_ to_fp 11 53) c_ack!688) ((_ to_fp 11 53) #xbff0000000000000))))
(assert (not (fp.gt ((_ to_fp 11 53) c_ack!688) ((_ to_fp 11 53) #x3ff0000000000000))))
(assert (not (= #x00000000 b_ack!687)))
(assert (not (= #x00000001 b_ack!687)))
(assert (not (bvslt b_ack!687 #x00000000)))
(assert (not (bvslt a_ack!689 b_ack!687)))
(assert (not (fp.lt ((_ to_fp 11 53) c_ack!688) ((_ to_fp 11 53) #xbff0000000000000))))
(assert (not (fp.gt ((_ to_fp 11 53) c_ack!688) ((_ to_fp 11 53) #x3ff0000000000000))))
(assert (bvslt #x00000000 b_ack!687))
(assert (not (fp.eq ((_ to_fp 11 53) c_ack!688) ((_ to_fp 11 53) #x3ff0000000000000))))
(assert (not (fp.eq ((_ to_fp 11 53) c_ack!688) ((_ to_fp 11 53) #xbff0000000000000))))
(assert (not (= #x00000000 b_ack!687)))

(check-sat)
(exit)
